* ENCODING=ISO-8859-1
NAME          CPLEX
ROWS
 N  obj1    
 G  c1      
 G  c2      
 G  c3      
 G  c4      
 G  c5      
 G  c6      
 G  c7      
 G  c8      
 G  c9      
 G  c10     
 G  c11     
 G  c12     
 G  c13     
 G  c14     
 G  c15     
 G  c16     
 G  c17     
 G  c18     
 G  c19     
 G  c20     
 G  c21     
 G  c22     
 G  c23     
 G  c24     
 G  c25     
 G  c26     
 G  c27     
 G  c28     
 G  c29     
 G  c30     
 G  c31     
 G  c32     
 G  c33     
 G  c34     
 G  c35     
COLUMNS
    MARK0000  'MARKER'                 'INTORG'
    x1        obj1                            1
    x1        c7                            752
    x1        c9                            790
    x1        c12                           282
    x1        c24                           511
    x1        c30                           582
    x1        c34                           775
    x2        obj1                            1
    x2        c17                           603
    x3        obj1                            1
    x3        c3                            563
    x3        c12                           920
    x3        c24                           759
    x3        c29                           377
    x3        c30                           673
    x3        c32                           464
    x4        obj1                            1
    x4        c6                            559
    x4        c12                           763
    x4        c17                           929
    x4        c35                           123
    x5        obj1                            1
    x5        c26                           999
    x5        c31                           777
    x5        c33                           364
    x6        obj1                            1
    x6        c14                           489
    x6        c16                           828
    x6        c27                           978
    x7        obj1                            1
    x7        c6                            548
    x7        c15                           934
    x7        c16                           406
    x7        c20                           654
    x7        c26                           358
    x8        obj1                            1
    x8        c3                            682
    x8        c8                            119
    x8        c21                           671
    x8        c28                           219
    x8        c33                           855
    x9        obj1                            1
    x9        c5                            318
    x9        c10                           965
    x9        c15                           814
    x9        c20                           828
    x10       obj1                            1
    x10       c18                           944
    x10       c24                           192
    x11       obj1                            1
    x11       c20                           172
    x11       c23                           983
    x12       obj1                            1
    x12       c3                            549
    x12       c10                           355
    x12       c20                           194
    x12       c22                           261
    x12       c33                           761
    x12       c34                           140
    x12       c35                           984
    x13       obj1                            1
    x13       c10                           139
    x13       c11                           165
    x13       c21                           322
    x13       c25                           392
    x14       obj1                            1
    x14       c17                           494
    x14       c28                           320
    x15       obj1                            1
    x15       c4                            631
    x15       c9                            263
    x15       c27                           771
    x16       obj1                            1
    x16       c3                            529
    x16       c14                           911
    x17       obj1                            1
    x17       c15                           753
    x17       c18                           345
    x17       c28                           635
    x17       c31                           404
    x18       obj1                            1
    x18       c4                           1000
    x18       c18                           227
    x18       c20                           663
    x19       obj1                            1
    x19       c1                            574
    x19       c3                            348
    x19       c4                            491
    x19       c8                            928
    x19       c16                           934
    x20       obj1                            1
    x20       c17                           939
    x20       c18                           147
    x20       c27                           703
    x20       c35                           765
    x21       obj1                            1
    x22       obj1                            1
    x22       c19                           265
    x22       c25                           730
    x23       obj1                            1
    x23       c17                           990
    x23       c20                           207
    x24       obj1                            1
    x24       c22                           549
    x25       obj1                            1
    x25       c16                           821
    x25       c29                           535
    x25       c35                           963
    x26       obj1                            1
    x26       c13                           301
    x26       c14                           721
    x26       c16                           935
    x26       c30                           130
    x27       obj1                            1
    x27       c11                           332
    x27       c24                           402
    x28       obj1                            1
    x28       c10                           247
    x28       c13                           322
    x28       c18                           513
    x28       c33                           479
    x29       obj1                            1
    x29       c18                           898
    x29       c26                           988
    x29       c30                           386
    x30       obj1                            1
    x30       c13                           668
    x30       c19                           734
    x30       c24                           988
    x30       c32                           905
    x31       obj1                            1
    x31       c3                            817
    x31       c4                            599
    x31       c9                            298
    x31       c13                           423
    x31       c25                           649
    x32       obj1                            1
    x32       c7                            987
    x32       c10                           420
    x32       c14                           830
    x32       c18                           504
    x32       c25                           210
    x33       obj1                            1
    x33       c6                            254
    x33       c16                           134
    x33       c20                           991
    x33       c22                           351
    x33       c31                           636
    x34       obj1                            1
    x34       c13                           850
    x34       c16                           353
    x35       obj1                            1
    x35       c14                           512
    x36       obj1                            1
    x36       c24                           710
    x36       c28                           302
    x37       obj1                            1
    x37       c15                           812
    x37       c24                           326
    x38       obj1                            1
    x38       c5                            207
    x38       c27                           308
    x38       c33                           675
    x39       obj1                            1
    x40       obj1                            1
    x40       c8                            688
    x40       c34                           778
    x41       obj1                            1
    x41       c19                           133
    x42       obj1                            1
    x42       c2                            733
    x42       c12                           457
    x42       c14                           603
    x42       c21                           699
    x42       c25                           684
    x43       obj1                            1
    x43       c5                            514
    x43       c7                            430
    x43       c15                           828
    x43       c19                           821
    x43       c24                           991
    x44       obj1                            1
    x44       c13                           968
    x44       c23                           517
    x44       c24                           488
    x44       c29                           328
    x45       obj1                            1
    x45       c2                            629
    x45       c8                            982
    x45       c10                           201
    x45       c17                           958
    x45       c32                           428
    x45       c33                           824
    x46       obj1                            1
    x46       c1                            714
    x46       c6                            584
    x46       c16                           268
    x46       c35                           363
    x47       obj1                            1
    x47       c1                            856
    x47       c2                            533
    x47       c3                            776
    x47       c8                            348
    x48       obj1                            1
    x48       c3                            801
    x48       c5                            706
    x48       c6                            365
    x48       c20                           740
    x48       c22                           954
    x48       c23                           865
    x49       obj1                            1
    x49       c30                           851
    x49       c35                           174
    x50       obj1                            1
    x50       c2                            144
    x50       c3                            266
    x50       c26                           716
    x50       c33                           530
    x51       obj1                            1
    x51       c4                            333
    x51       c5                            435
    x51       c7                            370
    x51       c19                           242
    x51       c30                           817
    x52       obj1                            1
    x52       c15                           404
    x53       obj1                            1
    x53       c7                            276
    x53       c9                            477
    x54       obj1                            1
    x54       c30                           771
    x55       obj1                            1
    x55       c35                           100
    x56       obj1                            1
    x56       c6                            234
    x56       c10                           522
    x56       c12                           908
    x56       c34                           878
    x57       obj1                            1
    x57       c18                           362
    x57       c34                           814
    x57       c35                           773
    x58       obj1                            1
    x58       c6                            567
    x58       c9                            816
    x58       c13                           252
    x58       c21                           663
    x58       c31                           426
    x59       obj1                            1
    x59       c1                            112
    x59       c4                            410
    x59       c6                            289
    x59       c9                            883
    x59       c12                           867
    x59       c27                           337
    x59       c34                           637
    x60       obj1                            1
    x60       c20                           497
    x60       c22                           667
    x61       obj1                            1
    x61       c5                            314
    x61       c11                           339
    x61       c33                           643
    x61       c35                           996
    x62       obj1                            1
    x62       c3                            976
    x62       c6                            892
    x62       c19                           245
    x62       c20                           446
    x62       c23                           153
    x62       c25                           714
    x63       obj1                            1
    x63       c1                            626
    x63       c22                           598
    x63       c34                           560
    x64       obj1                            1
    x64       c11                           743
    x64       c30                           113
    x64       c33                           222
    x65       obj1                            1
    x65       c8                            197
    x65       c11                           977
    x65       c16                           629
    x65       c22                           241
    x65       c26                           869
    x66       obj1                            1
    x66       c6                            204
    x66       c11                           610
    x66       c13                           357
    x66       c14                           815
    x66       c29                           770
    x66       c32                           953
    x66       c33                           795
    x67       obj1                            1
    x67       c12                           100
    x67       c17                           458
    x67       c25                           461
    x67       c26                           415
    x67       c28                           686
    x68       obj1                            1
    x68       c17                           449
    x68       c19                           985
    x68       c23                           337
    x68       c29                           805
    x69       obj1                            1
    x69       c2                            244
    x69       c12                           813
    x69       c19                           601
    x69       c22                           263
    x70       obj1                            1
    x70       c10                           361
    x70       c16                           959
    x70       c21                           920
    MARK0001  'MARKER'                 'INTEND'
RHS
    rhs       c1                           1441
    rhs       c2                           1142
    rhs       c3                           3154
    rhs       c4                           1732
    rhs       c5                           1247
    rhs       c6                           2248
    rhs       c7                           1408
    rhs       c8                           1631
    rhs       c9                           1764
    rhs       c10                          1605
    rhs       c11                          1583
    rhs       c12                          2555
    rhs       c13                          2071
    rhs       c14                          2441
    rhs       c15                          2273
    rhs       c16                          3134
    rhs       c17                          2910
    rhs       c18                          1970
    rhs       c19                          2013
    rhs       c20                          2696
    rhs       c21                          1638
    rhs       c22                          1942
    rhs       c23                          1428
    rhs       c24                          2684
    rhs       c25                          1920
    rhs       c26                          2173
    rhs       c27                          1549
    rhs       c28                          1081
    rhs       c29                          1408
    rhs       c30                          2162
    rhs       c31                          1122
    rhs       c32                          1375
    rhs       c33                          3074
    rhs       c34                          2291
    rhs       c35                          2621
BOUNDS
 LI bnd       x1        0
 LI bnd       x2        0
 LI bnd       x3        0
 LI bnd       x4        0
 LI bnd       x5        0
 LI bnd       x6        0
 LI bnd       x7        0
 LI bnd       x8        0
 LI bnd       x9        0
 LI bnd       x10       0
 LI bnd       x11       0
 LI bnd       x12       0
 LI bnd       x13       0
 LI bnd       x14       0
 LI bnd       x15       0
 LI bnd       x16       0
 LI bnd       x17       0
 LI bnd       x18       0
 LI bnd       x19       0
 LI bnd       x20       0
 LI bnd       x21       0
 LI bnd       x22       0
 LI bnd       x23       0
 LI bnd       x24       0
 LI bnd       x25       0
 LI bnd       x26       0
 LI bnd       x27       0
 LI bnd       x28       0
 LI bnd       x29       0
 LI bnd       x30       0
 LI bnd       x31       0
 LI bnd       x32       0
 LI bnd       x33       0
 LI bnd       x34       0
 LI bnd       x35       0
 LI bnd       x36       0
 LI bnd       x37       0
 LI bnd       x38       0
 LI bnd       x39       0
 LI bnd       x40       0
 LI bnd       x41       0
 LI bnd       x42       0
 LI bnd       x43       0
 LI bnd       x44       0
 LI bnd       x45       0
 LI bnd       x46       0
 LI bnd       x47       0
 LI bnd       x48       0
 LI bnd       x49       0
 LI bnd       x50       0
 LI bnd       x51       0
 LI bnd       x52       0
 LI bnd       x53       0
 LI bnd       x54       0
 LI bnd       x55       0
 LI bnd       x56       0
 LI bnd       x57       0
 LI bnd       x58       0
 LI bnd       x59       0
 LI bnd       x60       0
 LI bnd       x61       0
 LI bnd       x62       0
 LI bnd       x63       0
 LI bnd       x64       0
 LI bnd       x65       0
 LI bnd       x66       0
 LI bnd       x67       0
 LI bnd       x68       0
 LI bnd       x69       0
 LI bnd       x70       0
ENDATA
